\ Model MilkPowder_20
\ LP format - for model browsing. Use MPS format to capture full model detail.
Minimize
  - 0.0001 W + 0.5 b + 0.275 h + 0.5 i + C19 + 100 C20 + GlobalOracle[20]
Subject To
 Pasture_Cover: P - P0 + h + fp - 7 gr <= 0
 Supplement_Storage: Q - Q0 - 0.9 h + fs <= 0
 Supplement_Storage: Q - Q0 - 0.9 h + fs <= 0
 CowsAmount: C - C0 <= 0
 Soil_Limit: W <= 150
 milkRel: - 0.0122835418913514 mlk + milk <= 0
 milk_BALANCE: M - M0 - milk <= 0
 EnergyBalance: 4.550889667477399 C0 + 11 b + 11 fs + 11 fp - mlk
   >= 1195.113062081762
 maximum_milk: - 1043.063454248505 C0 + mlk <= 0
 minimum_milk: - 6.3 C0 + milk >= 0
 pasture_growth_constraints1: - 1.166512517217339 ev + gr <= 0
 growth_aprox0.000000: - 0.0742857142857143 P0 + gr
   <= 7.4285714285714287e-04
 growth_aprox1750.000000: gr <= 65
 growth_aprox3500.000000: 0.0742857142857143 P0 + gr <= 259.9992571428571
 max_irrigation: i <= 0
 evapotranspiration_ctr: ev - evapotranspiration <= 0
 soil-mosture-balance: W - W0 - i + ev - rainfall <= 0
 max_rate_d1_1: C19 >= 0
 max_rate_d1_2: - 0.25 b + C19 >= -15.75
 max_rate_d1_3: - 0.75 b + C19 >= -57.75
 max_rate_d1_4: - b + C19 >= -89.25
 unicut[0]: - oracle[20][19] + GlobalOracle[20] >= 0
 cut[20,0,0]: 4.3366184859801807e+07 P + 51.31595200193278 C
   + oracle[20][0] >= -119793.652663282
 cut[20,0,1]: 4.3366184859801807e+07 P + 51.31595200193278 C
   + oracle[20][1] >= -119793.6526632817
 cut[20,0,2]: 4.3366184859801807e+07 P + 51.31595200193278 C
   + oracle[20][2] >= -119793.6526632817
 cut[20,0,3]: 4.3366184859801807e+07 P + 51.31595200193278 C
   + oracle[20][3] >= -119793.6526632817
 cut[20,0,4]: 4.3366184859801807e+07 P + 51.31595200193278 C
   + oracle[20][4] >= -119793.6526632817
 cut[20,0,5]: 4.3366184859801807e+07 P + 51.31595200193278 C
   + oracle[20][5] >= -119793.6526632817
 cut[20,0,6]: 4.3366184859801807e+07 P + 51.31595200193278 C
   + oracle[20][6] >= -119793.6526632817
 cut[20,0,7]: 4.3366184859801807e+07 P + 51.31595200193278 C
   + oracle[20][7] >= -119793.6526632817
 cut[20,0,8]: 4.3366184859801807e+07 P + 51.31595200193278 C
   + oracle[20][8] >= -119793.6526632817
 cut[20,0,9]: 4.3366184859801807e+07 P + 51.31595200193278 C
   + oracle[20][9] >= -119793.6526632817
 cut[20,0,10]: 4.3366184859801807e+07 P + 51.31595200193278 C
   + oracle[20][10] >= -119793.6526632817
 cut[20,0,11]: 4.3366184859801807e+07 P + 51.31595200193278 C
   + oracle[20][11] >= -119793.6526632817
 cut[20,0,12]: 4.3366184859801807e+07 P + 51.31595200193278 C
   + oracle[20][12] >= -119793.6526632817
 cut[20,0,13]: 4.3366184859801807e+07 P + 51.31595200193278 C
   + oracle[20][13] >= -119793.6526632817
 cut[20,0,14]: 4.3366184859801807e+07 P + 51.31595200193278 C
   + oracle[20][14] >= -119793.6526632817
 cut[20,0,15]: 4.3366184859801807e+07 P + 51.31595200193278 C
   + oracle[20][15] >= -119793.6526632817
 cut[20,0,16]: 4.3366184859801807e+07 P + 51.31595200193278 C
   + oracle[20][16] >= -119793.6526632817
 cut[20,0,17]: 4.3366184859801807e+07 P + 51.31595200193278 C
   + oracle[20][17] >= -119793.6526632817
 cut[20,0,18]: 4.3366184859801807e+07 P + 51.31595200193278 C
   + oracle[20][18] >= -119793.6526632817
 cut[20,0,19]: 4.3366184859789215e+07 P + 0.0002 W + 51.31595200193278 C
   + oracle[20][19] >= -119793.6226631558
Bounds
 M = -10000
 P0 = 0
 Q0 = 0
 W0 = 150
 C0 = 0
 M0 = -10000
 evapotranspiration = 34.9
 rainfall = 22.23333333333333
 oracle[20][0] >= -1e+08
 oracle[20][1] >= -1e+08
 oracle[20][2] >= -1e+08
 oracle[20][3] >= -1e+08
 oracle[20][4] >= -1e+08
 oracle[20][5] >= -1e+08
 oracle[20][6] >= -1e+08
 oracle[20][7] >= -1e+08
 oracle[20][8] >= -1e+08
 oracle[20][9] >= -1e+08
 oracle[20][10] >= -1e+08
 oracle[20][11] >= -1e+08
 oracle[20][12] >= -1e+08
 oracle[20][13] >= -1e+08
 oracle[20][14] >= -1e+08
 oracle[20][15] >= -1e+08
 oracle[20][16] >= -1e+08
 oracle[20][17] >= -1e+08
 oracle[20][18] >= -1e+08
 oracle[20][19] >= -1e+08
 GlobalOracle[20] >= -1e+07
End
